p cnf 40 51
-1 -2 5 12 14 33 -3 11 13 16 24 26 29 -4 23 36 0 
-4 23 36 0 
-5 2 12 14 33 37 0 
-6 17 37 0 
-7 37 0 
-4 23 -8 -9 35 -1 36 0 
-10 34 -3 11 13 16 24 26 29 -1 -4 23 36 0 
-11 3 13 16 24 26 29 38 0 
-12 2 5 14 33 38 0 
-13 3 11 16 24 26 29 37 0 
-14 2 5 12 33 39 0 
-8 -15 22 -16 3 11 13 24 26 29 39 0 
-17 6 -18 21 -10 34 39 0 
-19 -10 34 -16 3 11 13 24 26 29 39 0 
-8 -20 -16 3 11 13 24 26 29 39 0 
-16 3 11 13 24 26 29 39 0 
-21 18 -22 15 -23 4 38 0 
-24 3 11 13 16 26 29 38 0 
-7 -4 23 -1 36 0 
-3 11 13 16 24 26 29 -2 5 12 14 33 -1 -4 23 -25 36 0 
-19 -20 -16 3 11 13 24 26 29 39 0 
-18 21 -20 -14 2 5 12 33 39 0 
-19 -8 -16 3 11 13 24 26 29 -17 6 37 0 
-26 3 11 13 16 24 29 39 0 
-27 37 0 
-28 37 0 
-29 3 11 13 16 24 26 37 0 
-5 2 12 14 33 39 0 
-13 3 11 16 24 26 29 37 0 
-17 6 -30 -31 37 0 
-32 -22 15 -6 17 37 0 
-15 22 -17 6 -16 3 11 13 24 26 29 39 0 
-18 21 -10 34 -9 35 39 0 
-3 11 13 16 24 26 29 -4 23 -1 36 0 
-29 3 11 13 16 24 26 39 0 
-19 -6 17 -32 -21 18 37 0 
-19 -6 17 39 0 
-26 3 11 13 16 24 29 37 0 
-7 -2 5 12 14 33 -3 11 13 16 24 26 29 -4 23 36 0 
-4 23 -17 6 -1 36 0 
-10 34 -4 23 -3 11 13 16 24 26 29 -1 36 0 
-10 34 -15 22 37 0 
-33 2 5 12 14 37 0 
-19 -8 -11 3 13 16 24 26 29 37 0 
-9 35 -20 -15 22 -17 6 37 0 
-19 -18 21 -10 34 39 0 
-9 35 -17 6 -16 3 11 13 24 26 29 39 0 
-9 35 -18 21 -10 34 39 0 
-22 15 -34 10 37 0 
-13 3 11 16 24 26 29 -17 6 37 0 
-35 9 40 0 
